CMD:
./solvers/bin/cadical --plain --no-reduce -t 1600 ./data/cnfs//eijks208c/eijks208c.9.cnf

c --- [ banner ] -------------------------------------------------------------
c 
c CaDiCaL SAT Solver
c Copyright (c) 2016-2024
c A. Biere, M. Fleury, N. Froleyks, K. Fazekas, F. Pollitt, T. Faller
c JKU Linz, University of Freiburg, TU Wien
c 
c Version 2.1.3 5296d3d2a9bf48c154ab2acb5e44625776d821bf
c g++ (Gentoo 12.3.1_p20230526 p2) 12.3.1 20230526 -Wall -Wextra -O3 -DNDEBUG
c Sat Aug 9 07:26:21 PDT 2025 Linux cedar2.int.cedar.computecanada.ca 5.14.0-362.24.2.el9_3.x86_64 x86_64
c 
c --- [ limit ] --------------------------------------------------------------
c 
c setting time limit to 1600 seconds real time (due to '-t 1600')
c 
c --- [ parsing input ] ------------------------------------------------------
c 
c reading DIMACS file from './data/cnfs//eijks208c/eijks208c.9.cnf'
c opening file to read './data/cnfs//eijks208c/eijks208c.9.cnf'
c found 'p cnf 1613 4463' header
c parsed 4463 clauses in 0.00 seconds process time
c 
c --- [ options ] ------------------------------------------------------------
c 
c   --compact=false                (different from default 'true')
c   --decompose=false              (different from default 'true')
c   --deduplicate=false            (different from default 'true')
c   --elim=false                   (different from default 'true')
c   --probe=false                  (different from default 'true')
c   --reduce=false                 (different from default 'true')
c   --subsume=false                (different from default 'true')
c   --ternary=false                (different from default 'true')
c   --transred=false               (different from default 'true')
c   --vivify=false                 (different from default 'true')
c 
c --- [ solving ] ------------------------------------------------------------
c 
c time measured in process time since initialization
c 
c  seconds  reductions  redundant irredundant
c         MB    restarts       trail    variables
c          level   conflicts       glue      remaining
c 
c *  0.00  4  0 0   0    0    0  0% 0 3659 1033 64%
c {  0.00  5  0 0   0    0    0  0% 0 3659 1033 64%
c i  0.00  5  7 0   0    6    5 49% 1 3659 1017 63%
c i  0.00  5  7 0   0   14   12 56% 1 3659 1009 63%
c i  0.00  5 18 0   0   20   17 65% 1 3659 995 62%
c i  0.00  5 18 0   0   21   17 66% 1 3659 988 61%
c i  0.00  5 10 0   0   84   72 78% 2 3659 935 58%
c i  0.00  5 10 0   2   97   83 77% 2 3659 929 58%
c i  0.00  5  9 0   7  115  100 76% 2 3659 926 57%
c i  0.00  5  9 0   8  116  100 76% 2 3659 891 55%
c i  0.00  5  9 0  13  136  118 76% 2 3659 858 53%
c i  0.00  5  9 0  13  138  119 76% 2 3659 855 53%
c i  0.00  5  9 0  16  153  132 76% 2 3659 854 53%
c i  0.00  5  8 0  36  236  200 76% 2 3659 846 52%
c i  0.00  5  8 0  39  247  208 76% 2 3659 822 51%
c i  0.00  5  8 0  43  264  221 77% 2 3659 821 51%
c i  0.00  5  8 0  47  283  231 76% 3 3659 797 49%
c i  0.00  5  8 0  48  289  230 76% 2 3659 746 46%
c i  0.01  5  7 0  50  298  235 76% 2 3659 690 43%
c i  0.01  5  7 0  50  301  237 76% 2 3659 686 43%
c 
c  seconds  reductions  redundant irredundant
c         MB    restarts       trail    variables
c          level   conflicts       glue     remaining
c 
c }  0.01  5  7 0  50  305  238 76% 2 3659 234 15%
c 0  0.01  5  7 0  50  305  238 76% 2 3659 234 15%
c 
c --- [ result ] -------------------------------------------------------------
c 
s UNSATISFIABLE
c 
c --- [ run-time profiling ] -------------------------------------------------
c 
c process time taken by individual solving procedures
c (percentage relative to process time for solving)
c 
c         0.00   97.85% search
c         0.00   90.86% unstable
c         0.00   20.30% parse
c         0.00    6.64% lucky
c         0.00    0.00% simplify
c   =================================
c         0.00   77.85% solve
c 
c last line shows process time for solving
c (percentage relative to total process time)
c 
c --- [ statistics ] ---------------------------------------------------------
c 
c chronological:                92        30.16 %  of conflicts
c conflicts:                   305     75308.64    per second
c decisions:                   738    182222.22    per second
c fixed:                      1379        85.49 %  of all variables
c learned:                     292        95.74 %  per conflict
c learned_lits:               2064       100.00 %  learned literals
c minimized:                     0         0.00 %  learned literals
c shrunken:                    471        22.82 %  learned literals
c minishrunken:                102         4.94 %  learned literals
c otfs:                          5         1.64 %  of conflict
c propagations:              54839        13.54 M  per second
c restarts:                     50         6.10    interval
c subsumed:                     35         0.89 %  of all clauses
c strengthened:                  5         0.13 %  of all clauses
c 
c seconds are measured in process time for solving
c 
c --- [ resources ] ----------------------------------------------------------
c 
c total process time since initialization:         0.01    seconds
c total real time since initialization:            0.01    seconds
c maximum resident set size of process:           32.86    MB
c 
c --- [ shutting down ] ------------------------------------------------------
c 
c exit 20
